c instance by G2
c solution = 101100110101011
c Known solution cost is 707 
p cnf 15 30
w 59 40 71 36 6 3 57 87 35 9 67 30 33 83 91
13 2 -9 0
11 3 13 0
-3 10 9 0
-7 -5 -2 0
1 2 -15 0
-4 -6 -2 0
4 -15 -9 0
-15 4 -1 0
-1 -12 14 0
11 -9 4 0
7 13 -12 0
11 -3 8 0
-14 2 10 0
10 6 -8 0
-7 -14 -6 0
-11 9 -3 0
1 -15 2 0
-12 -5 -10 0
-14 -9 -13 0
13 -9 3 0
14 -11 -5 0
-13 -10 -1 0
10 5 -3 0
12 6 5 0
3 -5 12 0
-8 1 5 0
-1 9 -2 0
8 -10 6 0
6 15 13 0
-10 -11 -7 0
